33D32945 STP File, STP Format Version 1.0

SECTION Comments
Name "edge_n11_d3_s21"
Problem "Euclidean Steiner Tree Problem"
Remark "Generated with STPGenerator. 3 dimensions."
END

SECTION Graph
Nodes 11
END

SECTION Coordinates
DDD 0 0.5058995711 0.5058995711 0.5058995711
DDD 1 0.1543681692 0.1543681692 0.1543681692
DDD 2 0.3336426291 0.3336426291 0.3336426291
DDD 3 0.6982897980 0.6982897980 0.6982897980
DDD 4 0.0904165954 0.0904165954 0.0904165954
DDD 5 0.6112220658 0.6112220658 0.6112220658
DDD 6 0.0528075560 0.0528075560 0.0528075560
DDD 7 0.6665685525 0.6665685525 0.6665685525
DDD 8 0.8844101391 0.8844101391 0.8844101391
DDD 9 0.2439990897 0.2439990897 0.2439990897
DDD 10 0.1642170884 0.1642170884 0.1642170884
END
